4 
5  29 51 
6  07 27 39 52 
7  07 22 40 55 
8  10 25 40 55 
9  10 25 40 55 
10  10 25 40 55 
11  10 25 40 55 
12  10 25 40 55 
13  10 25 40 55 
14  10 25 40 55 
15  10 25 40 55 
16  10 25 40 55 
17  10 25 40 55 
18  10 25 40 55 
19  11 27 42 57 
20  12 27 42 57 
21  12 27 42 57 
22  12 26 41 56 
23  11 26 
0 
